53147
49, 48, 17, 23, 21, 29, 22, 10, 16, 39, 46, 36, 15, 52, 25, 31, 27, 1, 33, 42, 11, 45, 2, 14, 9, 12, 18, 4, 30, 47, 54, 34, 53, 26, 55, 28, 6, 3, 43, 40, 51, 13, 5, 37, 7, 20, 50, 24, 35, 41, 32, 8, 38, 44, 19
